NAME: Alanine_2TMS
SCANNUMBER: -1
RETENTIONTIME: -1
RETENTIONINDEX: 1133.662
PRECURSORMZ: 227.02199
PRECURSORTYPE: [M]+
IONMODE: Positive
SPECTRUMTYPE: Centroid
FORMULA: C9H23NO2Si2
INCHIKEY: FRWXSKQFKDEAOY-QMMMGPOBSA-N
INCHI: 
SMILES: O=C(O[Si](C)(C)C)C(N[Si](C)(C)C)C
AUTHORS: Price et al., RECETOX, Masaryk University (CZ)
COLLISIONENERGY: 70
INSTRUMENT: Q Exactive GC Orbitrap GC-MS/MS
INSTRUMENTTYPE: GC-EI-Orbitrap
IONIZATION: EI+
LICENSE: CC BY-NC
COMMENT: 
Num Peaks: 49
72.05697	2126154	"Theoretical m/z 72.057515, Mass diff 0 (0 ppm), Formula C4H8O"
73.04681	24527534	"Theoretical m/z 73.046806, Mass diff 0 (0.05 ppm), SMILES C[Si+](C)C, Annotation [C3H9Si]+, Rule of HR True"
74.04636	2131062
75.02608	1528408	"Theoretical m/z 75.02607, Mass diff 0 (0.14 ppm), SMILES C[Si+](C)O, Annotation [C2H7OSi]+, Rule of HR True"
82.0777	406336	"Theoretical m/z 82.07825, Mass diff 0 (0 ppm), Formula C6H10"
85.06478	8375092	"Theoretical m/z 85.06534, Mass diff 0 (0 ppm), Formula C5H9O"
86.07259	3230804
91.05737	616684	"Theoretical m/z 91.057371, Mass diff 0 (0.01 ppm), SMILES O[Si](C)(C)C, Annotation [C3H10OSi+H]+, Rule of HR True"
95.08553	2277234	"Theoretical m/z 95.086075, Mass diff 0 (0 ppm), Formula C7H11"
100.05766	1472858	"Theoretical m/z 100.057701, Mass diff 0 (-0.41 ppm), SMILES CC=[N+]=[Si](C)C, Annotation [C4H10NSi]+, Rule of HR True"
101.01974	400581
103.02097	562353	"Theoretical m/z 103.020984, Mass diff 0 (0.14 ppm), SMILES O=CO[SiH](C)C, Annotation [C3H8O2Si-H]+, Rule of HR True"
109.1012	800844	"Theoretical m/z 109.101725, Mass diff 0 (0 ppm), Formula C8H13"
116.08897	39485812	"Theoretical m/z 116.089005, Mass diff 0 (-0.3 ppm), SMILES C\C=[NH+]\[Si](C)(C)C, Annotation [C5H14NSi]+, Rule of HR True"
117.07289	1041636	"Theoretical m/z 117.073021, Mass diff 0 (-1.12 ppm), SMILES C\C=[O+]\[Si](C)(C)C, Annotation [C5H13OSi]+, Rule of HR True"
117.09226	4970877
118.08577	1483187
119.03426	671373	"Theoretical m/z 119.034843, Mass diff 0 (0 ppm), Formula C3H11OSi2"
128.05255	630485	"Theoretical m/z 128.052621, Mass diff 0 (0.56 ppm), SMILES O=CC(N[SiH](C)C)C, Annotation [C5H13NOSi-3H]+, Rule of HR True"
130.06824	451171	"Theoretical m/z 130.068271, Mass diff 0 (0.24 ppm), SMILES O=CC(N[SiH](C)C)C, Annotation [C5H13NOSi-H]+, Rule of HR True"
131.03427	479839	"Theoretical m/z 131.034843, Mass diff 0 (0 ppm), Formula C4H11OSi2"
133.04993	1234576	"Theoretical m/z 133.049942, Mass diff 0 (-0.09 ppm), SMILES C[SiH](C)O[Si+](C)C, Annotation [C4H13OSi2]+, Rule of HR True"
135.02918	975144	"Theoretical m/z 135.029758, Mass diff 0 (0 ppm), Formula C3H11O2Si2"
146.04509	467209	"Theoretical m/z 146.045742, Mass diff 0 (0 ppm), Formula C4H12NOSi2"
147.06552	9100107	"Theoretical m/z 147.065598, Mass diff 0 (-0.53 ppm), SMILES C[Si](C)=[O+][Si](C)(C)C, Annotation [C5H15OSi2]+, Rule of HR True"
148.06506	1492956
149.04475	26357884	"Theoretical m/z 149.044861, Mass diff 0 (-0.74 ppm), SMILES C[Si](C)=[O+][Si](C)(C)O, Annotation [C4H13O2Si2]+, Rule of HR True"
150.04434	3991806
151.04158	3077604
155.01531	947314
164.0556	726617	"Theoretical m/z 164.056307, Mass diff 0 (0 ppm), Formula C4H14NO2Si2"
167.05531	1912809
173.02588	957146	"Theoretical m/z 173.024278, Mass diff -0.002 (0 ppm), Formula C9H9Si2"
174.11272	1317556	"Theoretical m/z 174.112885, Mass diff 0 (-0.94 ppm), SMILES C[Si](C)(C)[N+](=C)[Si](C)(C)C, Annotation [C7H20NSi2]+, Rule of HR True"
181.00708	396261
190.10764	2228656	"Theoretical m/z 190.108342, Mass diff 0 (0 ppm), Formula C7H20NOSi2"
204.0869	3162789	"Theoretical m/z 204.087055, Mass diff 0 (0.76 ppm), SMILES O=C(O[SiH2]C)C(N[Si](C)(C)C)C, Annotation [C7H19NO2Si2-H]+, Rule of HR True"
205.09099	612696
218.10254	446408	"Theoretical m/z 218.102707, Mass diff 0 (-0.77 ppm), SMILES C[Si](C)(C)OC(=O)\C=[NH+]\[Si](C)(C)C, Annotation [C8H20NO2Si2]+, Rule of HR True"
221.08427	617732
225.05926	1456666
240.03165	1187122
249.13937	1067528
266.99915	407272
278.10574	1565445
285.00964	426466
304.05847	898099
332.07733	1124322
355.06967	458477


NAME: M000026_A110001-101-xxx_NA_1088,46_TRUE_VAR5_ALK_Alanine (2TMS)
SCANNUMBER: -1
RETENTIONTIME: 0
RETENTIONINDEX: 1088.46
PRECURSORMZ: 233.12618
PRECURSORTYPE: [M]+
IONMODE: Positive
SPECTRUMTYPE: Centroid
FORMULA: C9H23NO2Si2
INCHIKEY: 
INCHI: InChI=1S/C9H23NO2Si2/c1-8(10-13(2,3)4)9(11)12-14(5,6)7/h8,10H,1-7H3
SMILES: O=C(O[Si](C)(C)C)C(N[Si](C)(C)C)C
AUTHORS: 
COLLISIONENERGY: 40
INSTRUMENT: 
INSTRUMENTTYPE: 
IONIZATION: 
LICENSE: 
COMMENT: consensus spectrum of 17 spectra per analyte, MPIMP ID and isotopomer, with majority threshold = 60%
Num Peaks: 15
70.028741	20.0	"Theoretical m/z 70.028741, Mass diff 0.029 (410.59 ppm), SMILES O=CC(N)C, Annotation [C3H7NO-3H]+, Rule of HR True"
72.026399	30.0	"Theoretical m/z 72.026399, Mass diff 0.026 (366.65 ppm), SMILES N[Si](C)C, Annotation [C2H9NSi-3H]+, Rule of HR True"
77.041716	34.0	"Theoretical m/z 77.041716, Mass diff 0.042 (541.76 ppm), SMILES O[Si](C)C, Annotation [C2H8OSi+H]+, Rule of HR True"
86.023652	25.0	"Theoretical m/z 86.023652, Mass diff 0.024 (275.03 ppm), SMILES O=C(O)C(N)C, Annotation [C3H7NO2-3H]+, Rule of HR True"
88.057705	11.0	"Theoretical m/z 88.057705, Mass diff 0.058 (655.73 ppm), SMILES N[Si](C)(C)C, Annotation [C3H11NSi-H]+, Rule of HR True"
94.041865	21.0	"Theoretical m/z 94.041865, Mass diff 0.041 (0 ppm), Formula C6H6O"
100.057702	66.0	"Theoretical m/z 100.057702, Mass diff 0.058 (577.02 ppm), SMILES N(CC)[Si](C)C, Annotation [C4H13NSi-3H]+, Rule of HR True"
103.020984	37.0	"Theoretical m/z 103.020984, Mass diff 0.021 (203.73 ppm), SMILES O=CO[Si](C)C, Annotation [C3H8O2Si-H]+, Rule of HR True"
116.089	1000.0	"Theoretical m/z 116.089, Mass diff 0.089 (767.24 ppm), SMILES N(CC)[Si](C)(C)C, Annotation [C5H15NSi-H]+, Rule of HR True"
128.052621	13.0	"Theoretical m/z 128.052621, Mass diff 0.053 (411.1 ppm), SMILES O=CC(N[Si](C)C)C, Annotation [C5H13NOSi-3H]+, Rule of HR True"
130.068271	12.0	"Theoretical m/z 130.068271, Mass diff 0.068 (525.16 ppm), SMILES O=CC(N[Si](C)C)C, Annotation [C5H13NOSi-H]+, Rule of HR True"
131.05228	20.0	"Theoretical m/z 131.05228, Mass diff 0.052 (399.08 ppm), SMILES O=C(O[Si](C)C)CC, Annotation [C5H12O2Si-H]+, Rule of HR True"
133.06793	23.0	"Theoretical m/z 133.06793, Mass diff 0.068 (510.75 ppm), SMILES O=C(O[Si](C)C)CC, Annotation [C5H12O2Si+H]+, Rule of HR True"
190.014442	44.0	"Theoretical m/z 190.014442, Mass diff 0.014 (0 ppm), Formula C8H8NOSi2"
218.10271	18.0	"Theoretical m/z 218.10271, Mass diff 0.103 (471.15 ppm), SMILES O=C(O[Si](C)C)C(N[Si](C)(C)C)C, Annotation [C8H21NO2Si2-H]+, Rule of HR True"


RETENTIONINDEX: 1088.46
INCHI: InChI=1S/C9H23NO2Si2/c1-8(10-13(2,3)4)9(11)12-14(5,6)7/h8,10H,1-7H3
FORMULA: C9H23NO2Si2
COMMENT: consensus spectrum of 17 spectra per analyte, MPIMP ID and isotopomer, with majority threshold = 60%
NAME: M000026_A110001-101-xxx_NA_1088,46_TRUE_VAR5_ALK_Alanine (2TMS)
SMILES: O=C(O[Si](C)(C)C)C(N[Si](C)(C)C)C
PRECURSORMZ: 233.12618
IONMODE: Positive
PRECURSORTYPE: [M]+
NUM PEAKS: 41
70.0        20.0
71.0        7.0
72.0        30.0
76.0        9.0
77.0        34.0
84.0        5.0
85.0        3.0
86.0        25.0
87.0        10.0
88.0        11.0
89.0        3.0
94.0        21.0
99.0        2.0
100.0       66.0
101.0       15.0
102.0       16.0
103.0       37.0
104.0       4.0
105.0       5.0
114.0       9.0
116.0       1000.0
117.0       123.0
118.0       44.0
119.0       8.0
128.0       13.0
129.0       3.0
130.0       12.0
131.0       20.0
132.0       9.0
133.0       23.0
134.0       12.0
135.0       3.0
144.0       4.0
150.0       3.0
174.0       3.0
175.0       1.0
190.0       44.0
191.0       11.0
192.0       5.0
218.0       18.0
219.0       5.0

COMPOUND_NAME: Alanine_2TMS_QCxMS
CHARGE: 0
RETENTION_INDEX: None
RETENTION_TIME: None
NUM PEAKS: 101
15.023475   0.06345269520899653
27.023475   0.026689218839211656
28.018724   0.01832031665757909
28.0313     0.011517581705917192
28.984751   0.026700604979390075
29.039125   0.046093352189108636
30.034374   0.017784809706842358
31.000401   0.013733094605806503
39.023475   0.014760102183204941
41.992576   0.04317453074623521
42.034374   0.04665520976903125
43.000401   0.19418922537139477
43.99565    0.01839697579024734
44.008226   0.03785757645206416
44.050024   0.0187074419895795
44.979665   0.02018991646088606
45.016051   0.07156488762195413
54.034374   0.08530541516197786
55.018389   0.09602177634629712
55.042199   0.11856891510683704
56.008226   0.03838824573027033
56.026214   0.09093099617211677
56.050024   0.01484047353690654
57.016051   0.1751490932739426
57.98749    0.03991410689386252
58.0113     0.07838007512050803
58.023876   0.36616693342595197
58.995315   0.11358950079273128
59.019125   0.013950276713234566
59.023444   0.018521810360559575
59.031701   0.04594630200052976
60.00314    0.014174361661110255
60.02072    0.012320818933450144
61.010965   0.023901295959501967
68.979665   0.013153589800608321
70.0113     0.039124422070918825
70.029288   0.018007950999745177
70.995315   0.013805088386171047
71.019125   0.01934835000110171
72.02695    0.05267006402841162
72.039526   0.07388519357455627
73.010965   0.011224712009945827
73.034775   0.050100171302766644
73.047351   0.5795832791624177
74.01879    0.061948350567567576
74.0426     0.020145981745708873
74.046919   0.02986979963198787
74.050705   0.017643840304914074
75.044195   0.020060449016755206
83.019125   0.013603533509401865
83.990564   0.013628896801807294
84.02695    0.020403371592344816
85.034775   0.011960463918825182
86.0426     0.043034672495248796
86.972241   0.019355337380610398
86.990229   0.016810243821610518
98.006214   0.020503561130195712
99.014039   0.03250491937356644
99.050425   0.01358882096112068
100.05825   0.023232098610723898
100.987891  0.030920893154926812
101.066075  0.048444148095873114
101.98314   0.012913481582927246
101.995716  0.019169670107970552
113.029689  0.020606697792859226
114.037514  0.03925271694207123
116.011366  0.012638268514118057
116.08955   0.049185582950247726
117.006615  0.018953542250599673
117.019191  0.0380456018363916
128.053164  0.05474557643270156
129.060989  0.09637081516258875
130.032428  0.010028489036260574
131.022265  0.01263655370173513
131.034841  0.012038542729479238
132.042666  0.01249067614875877
133.014105  0.013594015958046001
141.978054  0.012526967808892443
142.985879  0.012520001484502906
143.993704  0.03129662300471131
144.084464  0.046156834724711444
147.066141  0.018513638573715428
157.001529  0.030916418800684776
158.009354  0.03741079862254741
172.025004  0.030757400475085128
173.032829  0.05542035607885431
174.040654  0.012294338734481394
187.048479  0.042405052475642385
188.056304  0.09112294219146533
190.08453   0.01809616355175485
202.071954  0.024041917949673905
203.079779  0.09618279713051453
217.095429  0.023836646129308293
218.103254  1.0
219.102822  0.10047896673551486
219.106608  0.08779287967909012
220.100098  0.06723624982533331
233.126729  0.32216830376169453
234.126297  0.03283557016831114
234.130083  0.032411775184581604
235.123573  0.021961011030739542

